WARNING: for repeatability, setting FPU to use double precision
============================[ Problem Statistics ]=============================
|                                                                             |
|  Number of variables:         24604                                         |
|  Number of clauses:          261472                                         |
|  Parse time:                   0.05 s                                       |
|                                                                             |
============================[ Search Statistics ]==============================
| Conflicts |          ORIGINAL         |          LEARNT          | Progress |
|           |    Vars  Clauses Literals |    Limit  Clauses Lit/Cl |          |
===============================================================================
|       100 |   24600   261450   744532 |    95865      100     26 |  0.016 % |
|       250 |   24600   261450   744532 |   105451      250     32 |  0.016 % |
|       475 |   24600   261450   744532 |   115996      475     38 |  0.016 % |
|       812 |   24600   261450   744532 |   127596      812     40 |  0.016 % |
|      1318 |   24600   261450   744532 |   140355     1318     39 |  0.016 % |
|      2077 |   24600   261450   744532 |   154391     2077     39 |  0.016 % |
|      3216 |   24600   261450   744532 |   169830     3216     43 |  0.016 % |
|      4924 |   24600   261450   744532 |   186813     4924     42 |  0.016 % |
|      7486 |   24600   261450   744532 |   205495     7486     45 |  0.016 % |
|     11330 |   24600   261450   744532 |   226044    11330     45 |  0.016 % |
|     17096 |   24600   261450   744532 |   248649    17096     48 |  0.016 % |
|     25745 |   24600   261450   744532 |   273514    25745     51 |  0.016 % |
|     38719 |   24600   261450   744532 |   300865    38719     50 |  0.016 % |
|     58180 |   24600   261450   744532 |   330951    58180     51 |  0.016 % |
|     87372 |   24600   261450   744532 |   364047    87372     53 |  0.016 % |
|    131161 |   24600   261450   744532 |   400451   131161     51 |  0.016 % |
|    196845 |   24600   261450   744532 |   440497   196845     47 |  0.016 % |
|    295371 |   24600   261450   744532 |   484546   295371     44 |  0.016 % |
|    443160 |   24600   261450   744532 |   533001   443160     45 |  0.016 % |
|    664843 |   24600   261450   744532 |   586301   152389     38 |  0.016 % |
|    997368 |   24600   261450   744532 |   644931   484914     41 |  0.016 % |
|   1496156 |   24600   261450   744532 |   709424   362016     41 |  0.016 % |
|   2244338 |   24600   261450   744532 |   780367   423913     43 |  0.016 % |
|   3366612 |   24600   261450   744532 |   858404    33969     38 |  0.016 % |
===============================================================================
restarts              : 7290
conflicts             : 4134656        (13843 /sec)
decisions             : 23520727       (0.00 % random) (78746 /sec)
propagations          : 1060502954     (3550514 /sec)
conflict literals     : 185068129      (47.91 % deleted)
Memory used           : 314.00 MB
CPU time              : 298.69 s

INDETERMINATE
